NAME : berlin52-R-3-2-a.0329_2224.tour
COMMENT : Found by CTSP-d POMO Model Sun Mar 29 22:24:14 2026
TYPE : TOUR
DIMENSION : 52
TOUR_SECTION
22
49
32
1
31
18
17
7
2
42
30
29
50
16
44
34
36
35
39
38
37
46
26
47
14
13
52
11
51
28
27
12
25
6
5
4
48
24
40
15
43
33
9
10
8
41
19
45
3
21
23
20
-1
EOF
